Function: get_partitions took 1.8596649169921875e-05 seconds
Function: map_flows_partitions took 3.5762786865234375e-06 seconds
Building model with:
2 devices, 3 partitions and 1 flows
Using license file /home/anup/gurobi.lic
Academic license - for non-commercial use only
Function: MIP.add_frac_mem_var took 0.00021886825561523438 seconds
Function: MIP.add_coverage_constraints took 0.00021886825561523438 seconds
Function: MIP.add_accuracy_constraints took 0.00018310546875 seconds
Function: MIP.add_capacity_constraints took 0.0002810955047607422 seconds
Changed value of parameter TimeLimit to 120.0
   Prev: inf  Min: 0.0  Max: inf  Default: inf
Changed value of parameter NonConvex to 2
   Prev: -1  Min: -1  Max: 2  Default: -1
--------------------------------------------------
Starting model update
Model update took: 3.0040740966796875e-05 s
--------------------------------------------------
Starting model optimize
Gurobi Optimizer version 9.0.0 build v9.0.0rc2 (linux64)
Optimize a model with 19 rows, 29 columns and 50 nonzeros
Model fingerprint: 0x1df3e1a2
Model has 3 quadratic constraints
Model has 3 general constraints
Variable types: 21 continuous, 8 integer (6 binary)
Coefficient statistics:
  Matrix range     [1e-04, 8e+03]
  QMatrix range    [1e+00, 1e+00]
  QLMatrix range   [1e+00, 1e+00]
  Objective range  [1e+00, 1e+00]
  Bounds range     [1e+00, 3e+04]
  RHS range        [1e+00, 2e+01]

---------------------------------------------------------------------------
Multi-objectives: starting optimization with 2 objectives ... 
---------------------------------------------------------------------------

Multi-objectives: applying initial presolve ...
---------------------------------------------------------------------------

Presolve removed 10 rows and 13 columns
Presolve time: 0.00s
Presolved: 17 rows and 17 columns
---------------------------------------------------------------------------

Multi-objectives: optimize objective 1 (ns) ...
---------------------------------------------------------------------------

Presolve removed 6 rows and 7 columns
Presolve time: 0.00s
Presolved: 19 rows, 11 columns, 42 nonzeros
Presolved model has 1 SOS constraint(s)
Presolved model has 2 bilinear constraint(s)
Variable types: 6 continuous, 5 integer (3 binary)

Root relaxation: objective 1.518897e+01, 8 iterations, 0.00 seconds

    Nodes    |    Current Node    |     Objective Bounds      |     Work
 Expl Unexpl |  Obj  Depth IntInf | Incumbent    BestBd   Gap | It/Node Time

     0     0   15.18897    0    4          -   15.18897      -     -    0s
     0     0   16.17955    0    4          -   16.17955      -     -    0s
     0     0   16.39983    0    2          -   16.39983      -     -    0s
     0     0   16.39983    0    2          -   16.39983      -     -    0s
H    0     0                      17.8571429   16.39983  8.16%     -    0s
     0     2   16.39983    0    2   17.85714   16.39983  8.16%     -    0s

Cutting planes:
  MIR: 2
  RLT: 1

Explored 3 nodes (16 simplex iterations) in 0.01 seconds
Thread count was 8 (of 8 available processors)

Solution count 1: 17.8571 

Optimal solution found (tolerance 1.00e-04)
Best objective 1.785714285714e+01, best bound 1.785714285714e+01, gap 0.0000%
---------------------------------------------------------------------------

Multi-objectives: optimize objective 2 (res) ...
---------------------------------------------------------------------------


Loaded user MIP start with objective 73.1108

Presolve removed 18 rows and 17 columns
Presolve time: 0.00s
Presolve: All rows and columns removed

Explored 0 nodes (0 simplex iterations) in 0.01 seconds
Thread count was 1 (of 8 available processors)

Solution count 1: 73.1108 

Optimal solution found (tolerance 1.00e-04)
Best objective 7.311082744598e+01, best bound 7.311082744598e+01, gap 0.0000%

---------------------------------------------------------------------------
Multi-objectives: solved in 0.01 seconds, solution count 1

Model optimize took: 0.0058443546295166016 seconds
--------------------------------------------------

Solution quality statistics for model Netmon :
  Maximum violation:
    Bound       : 0.00000000e+00
    Constraint  : 3.19744231e-13
    Integrality : 0.00000000e+00

Throughput: 56.0000000000005 Mpps, ns per packet: 17.857142857142698
Resources: 73.11082744598389
Used Cores: 7.0, Total CPUS: 1, Switch Memory: 0.0

Sketch (0) (cm: eps0: 1.25e-06, del0: 0.05, min_mem: 8494.6328125)
Par: 1, Rows: 1
(1.000,0)    (0.000,1)    
Total frac: 1.000
Par: 2, Rows: 1
(1.000,0)    (0.000,1)    
Total frac: 1.000
Par: 3, Rows: 1
(0.000,1)    (1.000,0)    
Total frac: 1.000

Device (0) CPU_1:
cores_sketch: 5.0, cores_dpdk: 2.0
Rows total: 3.0
Mem total: 25483.8984375
Throughput: 56.0000000000005

Device (1) P4_1:
Rows total: 0.0
Mem total: 0.0
Throughput: 148.0
--------------------------------------------------
Function: MIP.solve took 0.012019157409667969 seconds
Function: solve took 0.012268781661987305 seconds
